p cnf 839 2622
1 2 3 4 0
5 6 7 8 0
9 10 11 12 0
13 14 15 16 0
17 18 19 20 0
21 22 23 24 0
25 26 27 28 0
29 30 31 32 0
33 34 35 36 0
37 38 39 40 0
41 42 43 44 0
45 46 47 48 0
49 50 51 52 0
53 54 55 56 0
57 58 59 60 0
61 62 63 64 0
65 66 67 68 0
69 70 71 72 0
73 74 75 76 0
77 78 79 80 0
81 82 83 84 0
85 86 87 88 0
89 90 91 92 0
93 94 95 96 0
97 98 99 100 0
101 102 103 104 0
105 106 107 108 0
109 110 111 112 0
113 114 115 116 0
117 118 119 120 0
121 122 123 124 0
125 126 127 128 0
129 130 131 132 0
133 134 135 136 0
137 138 139 140 0
141 142 143 144 0
145 146 147 148 0
149 150 151 152 0
153 154 155 156 0
157 158 159 160 0
161 162 163 164 0
165 166 167 168 0
169 170 171 172 0
173 174 175 176 0
177 178 179 180 0
181 182 183 184 0
185 186 187 188 0
189 190 191 192 0
193 194 195 196 0
197 198 199 200 0
201 202 203 204 0
205 206 207 208 0
209 210 211 212 0
213 214 215 216 0
217 218 219 220 0
221 222 223 224 0
225 226 227 228 0
229 230 231 232 0
233 234 235 236 0
237 238 239 240 0
241 242 243 244 0
245 246 247 248 0
249 250 251 252 0
253 254 255 256 0
257 258 259 260 0
261 262 263 264 0
265 266 267 268 0
269 270 271 272 0
273 274 275 276 0
277 278 279 280 0
281 282 283 284 0
285 286 287 288 0
289 290 291 292 0
293 294 295 296 0
297 298 299 300 0
301 302 303 304 0
305 306 307 308 0
309 310 311 312 0
313 314 315 316 0
317 318 319 320 0
321 322 323 324 0
325 326 327 328 0
329 330 331 332 0
333 334 335 336 0
337 338 339 340 0
341 342 343 344 0
345 346 347 348 0
349 350 351 352 0
353 354 355 356 0
357 358 359 360 0
361 362 363 364 0
365 366 367 368 0
369 370 371 372 0
373 374 375 376 0
377 378 379 380 0
381 382 383 384 0
385 386 387 388 0
389 390 391 392 0
393 394 395 396 0
397 398 399 400 0
401 402 403 404 0
405 406 407 408 0
409 410 411 412 0
413 414 415 416 0
417 418 419 420 0
421 422 423 424 0
425 426 427 428 0
429 430 431 432 0
433 434 435 436 0
437 438 439 440 0
-1 -5 0
-2 -6 0
-3 -7 0
-4 -8 0
-1 -9 0
-2 -10 0
-3 -11 0
-4 -12 0
-5 -9 0
-6 -10 0
-7 -11 0
-8 -12 0
-13 -17 0
-14 -18 0
-15 -19 0
-16 -20 0
-5 -13 0
-6 -14 0
-7 -15 0
-8 -16 0
-17 -9 0
-18 -10 0
-19 -11 0
-20 -12 0
-13 -1 0
-14 -2 0
-15 -3 0
-16 -4 0
-17 -1 0
-18 -2 0
-19 -3 0
-20 -4 0
-5 -21 0
-6 -22 0
-7 -23 0
-8 -24 0
-5 -25 0
-6 -26 0
-7 -27 0
-8 -28 0
-9 -25 0
-10 -26 0
-11 -27 0
-12 -28 0
-9 -29 0
-10 -30 0
-11 -31 0
-12 -32 0
-13 -33 0
-14 -34 0
-15 -35 0
-16 -36 0
-13 -37 0
-14 -38 0
-15 -39 0
-16 -40 0
-17 -37 0
-18 -38 0
-19 -39 0
-20 -40 0
-17 -41 0
-18 -42 0
-19 -43 0
-20 -44 0
-21 -25 0
-22 -26 0
-23 -27 0
-24 -28 0
-33 -37 0
-34 -38 0
-35 -39 0
-36 -40 0
-25 -29 0
-26 -30 0
-27 -31 0
-28 -32 0
-37 -41 0
-38 -42 0
-39 -43 0
-40 -44 0
-21 -33 0
-22 -34 0
-23 -35 0
-24 -36 0
-41 -29 0
-42 -30 0
-43 -31 0
-44 -32 0
-33 -5 0
-34 -6 0
-35 -7 0
-36 -8 0
-41 -9 0
-42 -10 0
-43 -11 0
-44 -12 0
-21 -45 0
-22 -46 0
-23 -47 0
-24 -48 0
-21 -49 0
-22 -50 0
-23 -51 0
-24 -52 0
-25 -49 0
-26 -50 0
-27 -51 0
-28 -52 0
-25 -53 0
-26 -54 0
-27 -55 0
-28 -56 0
-29 -53 0
-30 -54 0
-31 -55 0
-32 -56 0
-29 -57 0
-30 -58 0
-31 -59 0
-32 -60 0
-33 -61 0
-34 -62 0
-35 -63 0
-36 -64 0
-33 -65 0
-34 -66 0
-35 -67 0
-36 -68 0
-37 -65 0
-38 -66 0
-39 -67 0
-40 -68 0
-37 -69 0
-38 -70 0
-39 -71 0
-40 -72 0
-41 -69 0
-42 -70 0
-43 -71 0
-44 -72 0
-41 -73 0
-42 -74 0
-43 -75 0
-44 -76 0
-45 -49 0
-46 -50 0
-47 -51 0
-48 -52 0
-61 -65 0
-62 -66 0
-63 -67 0
-64 -68 0
-49 -53 0
-50 -54 0
-51 -55 0
-52 -56 0
-65 -69 0
-66 -70 0
-67 -71 0
-68 -72 0
-53 -57 0
-54 -58 0
-55 -59 0
-56 -60 0
-69 -73 0
-70 -74 0
-71 -75 0
-72 -76 0
-45 -61 0
-46 -62 0
-47 -63 0
-48 -64 0
-73 -57 0
-74 -58 0
-75 -59 0
-76 -60 0
-61 -21 0
-62 -22 0
-63 -23 0
-64 -24 0
-73 -29 0
-74 -30 0
-75 -31 0
-76 -32 0
-45 -77 0
-46 -78 0
-47 -79 0
-48 -80 0
-45 -81 0
-46 -82 0
-47 -83 0
-48 -84 0
-49 -81 0
-50 -82 0
-51 -83 0
-52 -84 0
-49 -85 0
-50 -86 0
-51 -87 0
-52 -88 0
-53 -85 0
-54 -86 0
-55 -87 0
-56 -88 0
-53 -89 0
-54 -90 0
-55 -91 0
-56 -92 0
-57 -89 0
-58 -90 0
-59 -91 0
-60 -92 0
-57 -93 0
-58 -94 0
-59 -95 0
-60 -96 0
-61 -97 0
-62 -98 0
-63 -99 0
-64 -100 0
-61 -101 0
-62 -102 0
-63 -103 0
-64 -104 0
-65 -101 0
-66 -102 0
-67 -103 0
-68 -104 0
-65 -105 0
-66 -106 0
-67 -107 0
-68 -108 0
-69 -105 0
-70 -106 0
-71 -107 0
-72 -108 0
-69 -109 0
-70 -110 0
-71 -111 0
-72 -112 0
-73 -109 0
-74 -110 0
-75 -111 0
-76 -112 0
-73 -113 0
-74 -114 0
-75 -115 0
-76 -116 0
-77 -81 0
-78 -82 0
-79 -83 0
-80 -84 0
-97 -101 0
-98 -102 0
-99 -103 0
-100 -104 0
-81 -85 0
-82 -86 0
-83 -87 0
-84 -88 0
-101 -105 0
-102 -106 0
-103 -107 0
-104 -108 0
-85 -89 0
-86 -90 0
-87 -91 0
-88 -92 0
-105 -109 0
-106 -110 0
-107 -111 0
-108 -112 0
-89 -93 0
-90 -94 0
-91 -95 0
-92 -96 0
-109 -113 0
-110 -114 0
-111 -115 0
-112 -116 0
-77 -97 0
-78 -98 0
-79 -99 0
-80 -100 0
-113 -93 0
-114 -94 0
-115 -95 0
-116 -96 0
-97 -45 0
-98 -46 0
-99 -47 0
-100 -48 0
-113 -57 0
-114 -58 0
-115 -59 0
-116 -60 0
-77 -117 0
-78 -118 0
-79 -119 0
-80 -120 0
-77 -121 0
-78 -122 0
-79 -123 0
-80 -124 0
-81 -121 0
-82 -122 0
-83 -123 0
-84 -124 0
-81 -125 0
-82 -126 0
-83 -127 0
-84 -128 0
-85 -125 0
-86 -126 0
-87 -127 0
-88 -128 0
-85 -129 0
-86 -130 0
-87 -131 0
-88 -132 0
-89 -129 0
-90 -130 0
-91 -131 0
-92 -132 0
-89 -133 0
-90 -134 0
-91 -135 0
-92 -136 0
-93 -133 0
-94 -134 0
-95 -135 0
-96 -136 0
-93 -137 0
-94 -138 0
-95 -139 0
-96 -140 0
-97 -141 0
-98 -142 0
-99 -143 0
-100 -144 0
-97 -145 0
-98 -146 0
-99 -147 0
-100 -148 0
-101 -145 0
-102 -146 0
-103 -147 0
-104 -148 0
-101 -149 0
-102 -150 0
-103 -151 0
-104 -152 0
-105 -149 0
-106 -150 0
-107 -151 0
-108 -152 0
-105 -153 0
-106 -154 0
-107 -155 0
-108 -156 0
-109 -153 0
-110 -154 0
-111 -155 0
-112 -156 0
-109 -157 0
-110 -158 0
-111 -159 0
-112 -160 0
-113 -157 0
-114 -158 0
-115 -159 0
-116 -160 0
-113 -161 0
-114 -162 0
-115 -163 0
-116 -164 0
-117 -121 0
-118 -122 0
-119 -123 0
-120 -124 0
-141 -145 0
-142 -146 0
-143 -147 0
-144 -148 0
-121 -125 0
-122 -126 0
-123 -127 0
-124 -128 0
-145 -149 0
-146 -150 0
-147 -151 0
-148 -152 0
-125 -129 0
-126 -130 0
-127 -131 0
-128 -132 0
-149 -153 0
-150 -154 0
-151 -155 0
-152 -156 0
-129 -133 0
-130 -134 0
-131 -135 0
-132 -136 0
-153 -157 0
-154 -158 0
-155 -159 0
-156 -160 0
-133 -137 0
-134 -138 0
-135 -139 0
-136 -140 0
-157 -161 0
-158 -162 0
-159 -163 0
-160 -164 0
-117 -141 0
-118 -142 0
-119 -143 0
-120 -144 0
-161 -137 0
-162 -138 0
-163 -139 0
-164 -140 0
-141 -77 0
-142 -78 0
-143 -79 0
-144 -80 0
-161 -93 0
-162 -94 0
-163 -95 0
-164 -96 0
-117 -165 0
-118 -166 0
-119 -167 0
-120 -168 0
-117 -169 0
-118 -170 0
-119 -171 0
-120 -172 0
-121 -169 0
-122 -170 0
-123 -171 0
-124 -172 0
-121 -173 0
-122 -174 0
-123 -175 0
-124 -176 0
-125 -173 0
-126 -174 0
-127 -175 0
-128 -176 0
-125 -177 0
-126 -178 0
-127 -179 0
-128 -180 0
-129 -177 0
-130 -178 0
-131 -179 0
-132 -180 0
-129 -181 0
-130 -182 0
-131 -183 0
-132 -184 0
-133 -181 0
-134 -182 0
-135 -183 0
-136 -184 0
-133 -185 0
-134 -186 0
-135 -187 0
-136 -188 0
-137 -185 0
-138 -186 0
-139 -187 0
-140 -188 0
-137 -189 0
-138 -190 0
-139 -191 0
-140 -192 0
-141 -193 0
-142 -194 0
-143 -195 0
-144 -196 0
-141 -197 0
-142 -198 0
-143 -199 0
-144 -200 0
-145 -197 0
-146 -198 0
-147 -199 0
-148 -200 0
-145 -201 0
-146 -202 0
-147 -203 0
-148 -204 0
-149 -201 0
-150 -202 0
-151 -203 0
-152 -204 0
-149 -205 0
-150 -206 0
-151 -207 0
-152 -208 0
-153 -205 0
-154 -206 0
-155 -207 0
-156 -208 0
-153 -209 0
-154 -210 0
-155 -211 0
-156 -212 0
-157 -209 0
-158 -210 0
-159 -211 0
-160 -212 0
-157 -213 0
-158 -214 0
-159 -215 0
-160 -216 0
-161 -213 0
-162 -214 0
-163 -215 0
-164 -216 0
-161 -217 0
-162 -218 0
-163 -219 0
-164 -220 0
-165 -169 0
-166 -170 0
-167 -171 0
-168 -172 0
-193 -197 0
-194 -198 0
-195 -199 0
-196 -200 0
-169 -173 0
-170 -174 0
-171 -175 0
-172 -176 0
-197 -201 0
-198 -202 0
-199 -203 0
-200 -204 0
-173 -177 0
-174 -178 0
-175 -179 0
-176 -180 0
-201 -205 0
-202 -206 0
-203 -207 0
-204 -208 0
-177 -181 0
-178 -182 0
-179 -183 0
-180 -184 0
-205 -209 0
-206 -210 0
-207 -211 0
-208 -212 0
-181 -185 0
-182 -186 0
-183 -187 0
-184 -188 0
-209 -213 0
-210 -214 0
-211 -215 0
-212 -216 0
-185 -189 0
-186 -190 0
-187 -191 0
-188 -192 0
-213 -217 0
-214 -218 0
-215 -219 0
-216 -220 0
-165 -193 0
-166 -194 0
-167 -195 0
-168 -196 0
-217 -189 0
-218 -190 0
-219 -191 0
-220 -192 0
-193 -117 0
-194 -118 0
-195 -119 0
-196 -120 0
-217 -137 0
-218 -138 0
-219 -139 0
-220 -140 0
-165 -221 0
-166 -222 0
-167 -223 0
-168 -224 0
-165 -225 0
-166 -226 0
-167 -227 0
-168 -228 0
-169 -225 0
-170 -226 0
-171 -227 0
-172 -228 0
-169 -229 0
-170 -230 0
-171 -231 0
-172 -232 0
-173 -229 0
-174 -230 0
-175 -231 0
-176 -232 0
-173 -233 0
-174 -234 0
-175 -235 0
-176 -236 0
-177 -233 0
-178 -234 0
-179 -235 0
-180 -236 0
-177 -237 0
-178 -238 0
-179 -239 0
-180 -240 0
-181 -237 0
-182 -238 0
-183 -239 0
-184 -240 0
-181 -241 0
-182 -242 0
-183 -243 0
-184 -244 0
-185 -241 0
-186 -242 0
-187 -243 0
-188 -244 0
-185 -245 0
-186 -246 0
-187 -247 0
-188 -248 0
-189 -245 0
-190 -246 0
-191 -247 0
-192 -248 0
-189 -249 0
-190 -250 0
-191 -251 0
-192 -252 0
-193 -253 0
-194 -254 0
-195 -255 0
-196 -256 0
-193 -257 0
-194 -258 0
-195 -259 0
-196 -260 0
-197 -257 0
-198 -258 0
-199 -259 0
-200 -260 0
-197 -261 0
-198 -262 0
-199 -263 0
-200 -264 0
-201 -261 0
-202 -262 0
-203 -263 0
-204 -264 0
-201 -265 0
-202 -266 0
-203 -267 0
-204 -268 0
-205 -265 0
-206 -266 0
-207 -267 0
-208 -268 0
-205 -269 0
-206 -270 0
-207 -271 0
-208 -272 0
-209 -269 0
-210 -270 0
-211 -271 0
-212 -272 0
-209 -273 0
-210 -274 0
-211 -275 0
-212 -276 0
-213 -273 0
-214 -274 0
-215 -275 0
-216 -276 0
-213 -277 0
-214 -278 0
-215 -279 0
-216 -280 0
-217 -277 0
-218 -278 0
-219 -279 0
-220 -280 0
-217 -281 0
-218 -282 0
-219 -283 0
-220 -284 0
-221 -225 0
-222 -226 0
-223 -227 0
-224 -228 0
-253 -257 0
-254 -258 0
-255 -259 0
-256 -260 0
-225 -229 0
-226 -230 0
-227 -231 0
-228 -232 0
-257 -261 0
-258 -262 0
-259 -263 0
-260 -264 0
-229 -233 0
-230 -234 0
-231 -235 0
-232 -236 0
-261 -265 0
-262 -266 0
-263 -267 0
-264 -268 0
-233 -237 0
-234 -238 0
-235 -239 0
-236 -240 0
-265 -269 0
-266 -270 0
-267 -271 0
-268 -272 0
-237 -241 0
-238 -242 0
-239 -243 0
-240 -244 0
-269 -273 0
-270 -274 0
-271 -275 0
-272 -276 0
-241 -245 0
-242 -246 0
-243 -247 0
-244 -248 0
-273 -277 0
-274 -278 0
-275 -279 0
-276 -280 0
-245 -249 0
-246 -250 0
-247 -251 0
-248 -252 0
-277 -281 0
-278 -282 0
-279 -283 0
-280 -284 0
-221 -253 0
-222 -254 0
-223 -255 0
-224 -256 0
-281 -249 0
-282 -250 0
-283 -251 0
-284 -252 0
-253 -165 0
-254 -166 0
-255 -167 0
-256 -168 0
-281 -189 0
-282 -190 0
-283 -191 0
-284 -192 0
-221 -285 0
-222 -286 0
-223 -287 0
-224 -288 0
-221 -289 0
-222 -290 0
-223 -291 0
-224 -292 0
-225 -289 0
-226 -290 0
-227 -291 0
-228 -292 0
-225 -293 0
-226 -294 0
-227 -295 0
-228 -296 0
-229 -293 0
-230 -294 0
-231 -295 0
-232 -296 0
-229 -297 0
-230 -298 0
-231 -299 0
-232 -300 0
-233 -297 0
-234 -298 0
-235 -299 0
-236 -300 0
-233 -301 0
-234 -302 0
-235 -303 0
-236 -304 0
-237 -301 0
-238 -302 0
-239 -303 0
-240 -304 0
-237 -305 0
-238 -306 0
-239 -307 0
-240 -308 0
-241 -305 0
-242 -306 0
-243 -307 0
-244 -308 0
-241 -309 0
-242 -310 0
-243 -311 0
-244 -312 0
-245 -309 0
-246 -310 0
-247 -311 0
-248 -312 0
-245 -313 0
-246 -314 0
-247 -315 0
-248 -316 0
-249 -313 0
-250 -314 0
-251 -315 0
-252 -316 0
-249 -317 0
-250 -318 0
-251 -319 0
-252 -320 0
-253 -321 0
-254 -322 0
-255 -323 0
-256 -324 0
-253 -325 0
-254 -326 0
-255 -327 0
-256 -328 0
-257 -325 0
-258 -326 0
-259 -327 0
-260 -328 0
-257 -329 0
-258 -330 0
-259 -331 0
-260 -332 0
-261 -329 0
-262 -330 0
-263 -331 0
-264 -332 0
-261 -333 0
-262 -334 0
-263 -335 0
-264 -336 0
-265 -333 0
-266 -334 0
-267 -335 0
-268 -336 0
-265 -337 0
-266 -338 0
-267 -339 0
-268 -340 0
-269 -337 0
-270 -338 0
-271 -339 0
-272 -340 0
-269 -341 0
-270 -342 0
-271 -343 0
-272 -344 0
-273 -341 0
-274 -342 0
-275 -343 0
-276 -344 0
-273 -345 0
-274 -346 0
-275 -347 0
-276 -348 0
-277 -345 0
-278 -346 0
-279 -347 0
-280 -348 0
-277 -349 0
-278 -350 0
-279 -351 0
-280 -352 0
-281 -349 0
-282 -350 0
-283 -351 0
-284 -352 0
-281 -353 0
-282 -354 0
-283 -355 0
-284 -356 0
-285 -289 0
-286 -290 0
-287 -291 0
-288 -292 0
-321 -325 0
-322 -326 0
-323 -327 0
-324 -328 0
-289 -293 0
-290 -294 0
-291 -295 0
-292 -296 0
-325 -329 0
-326 -330 0
-327 -331 0
-328 -332 0
-293 -297 0
-294 -298 0
-295 -299 0
-296 -300 0
-329 -333 0
-330 -334 0
-331 -335 0
-332 -336 0
-297 -301 0
-298 -302 0
-299 -303 0
-300 -304 0
-333 -337 0
-334 -338 0
-335 -339 0
-336 -340 0
-301 -305 0
-302 -306 0
-303 -307 0
-304 -308 0
-337 -341 0
-338 -342 0
-339 -343 0
-340 -344 0
-305 -309 0
-306 -310 0
-307 -311 0
-308 -312 0
-341 -345 0
-342 -346 0
-343 -347 0
-344 -348 0
-309 -313 0
-310 -314 0
-311 -315 0
-312 -316 0
-345 -349 0
-346 -350 0
-347 -351 0
-348 -352 0
-313 -317 0
-314 -318 0
-315 -319 0
-316 -320 0
-349 -353 0
-350 -354 0
-351 -355 0
-352 -356 0
-285 -321 0
-286 -322 0
-287 -323 0
-288 -324 0
-353 -317 0
-354 -318 0
-355 -319 0
-356 -320 0
-321 -221 0
-322 -222 0
-323 -223 0
-324 -224 0
-353 -249 0
-354 -250 0
-355 -251 0
-356 -252 0
-285 -357 0
-286 -358 0
-287 -359 0
-288 -360 0
-285 -361 0
-286 -362 0
-287 -363 0
-288 -364 0
-289 -361 0
-290 -362 0
-291 -363 0
-292 -364 0
-289 -365 0
-290 -366 0
-291 -367 0
-292 -368 0
-293 -365 0
-294 -366 0
-295 -367 0
-296 -368 0
-293 -369 0
-294 -370 0
-295 -371 0
-296 -372 0
-297 -369 0
-298 -370 0
-299 -371 0
-300 -372 0
-297 -373 0
-298 -374 0
-299 -375 0
-300 -376 0
-301 -373 0
-302 -374 0
-303 -375 0
-304 -376 0
-301 -377 0
-302 -378 0
-303 -379 0
-304 -380 0
-305 -377 0
-306 -378 0
-307 -379 0
-308 -380 0
-305 -381 0
-306 -382 0
-307 -383 0
-308 -384 0
-309 -381 0
-310 -382 0
-311 -383 0
-312 -384 0
-309 -385 0
-310 -386 0
-311 -387 0
-312 -388 0
-313 -385 0
-314 -386 0
-315 -387 0
-316 -388 0
-313 -389 0
-314 -390 0
-315 -391 0
-316 -392 0
-317 -389 0
-318 -390 0
-319 -391 0
-320 -392 0
-317 -393 0
-318 -394 0
-319 -395 0
-320 -396 0
-321 -397 0
-322 -398 0
-323 -399 0
-324 -400 0
-321 -401 0
-322 -402 0
-323 -403 0
-324 -404 0
-325 -401 0
-326 -402 0
-327 -403 0
-328 -404 0
-325 -405 0
-326 -406 0
-327 -407 0
-328 -408 0
-329 -405 0
-330 -406 0
-331 -407 0
-332 -408 0
-329 -409 0
-330 -410 0
-331 -411 0
-332 -412 0
-333 -409 0
-334 -410 0
-335 -411 0
-336 -412 0
-333 -413 0
-334 -414 0
-335 -415 0
-336 -416 0
-337 -413 0
-338 -414 0
-339 -415 0
-340 -416 0
-337 -417 0
-338 -418 0
-339 -419 0
-340 -420 0
-341 -417 0
-342 -418 0
-343 -419 0
-344 -420 0
-341 -421 0
-342 -422 0
-343 -423 0
-344 -424 0
-345 -421 0
-346 -422 0
-347 -423 0
-348 -424 0
-345 -425 0
-346 -426 0
-347 -427 0
-348 -428 0
-349 -425 0
-350 -426 0
-351 -427 0
-352 -428 0
-349 -429 0
-350 -430 0
-351 -431 0
-352 -432 0
-353 -429 0
-354 -430 0
-355 -431 0
-356 -432 0
-353 -433 0
-354 -434 0
-355 -435 0
-356 -436 0
-357 -361 0
-358 -362 0
-359 -363 0
-360 -364 0
-397 -401 0
-398 -402 0
-399 -403 0
-400 -404 0
-361 -365 0
-362 -366 0
-363 -367 0
-364 -368 0
-401 -405 0
-402 -406 0
-403 -407 0
-404 -408 0
-365 -369 0
-366 -370 0
-367 -371 0
-368 -372 0
-405 -409 0
-406 -410 0
-407 -411 0
-408 -412 0
-369 -373 0
-370 -374 0
-371 -375 0
-372 -376 0
-409 -413 0
-410 -414 0
-411 -415 0
-412 -416 0
-373 -377 0
-374 -378 0
-375 -379 0
-376 -380 0
-413 -417 0
-414 -418 0
-415 -419 0
-416 -420 0
-377 -381 0
-378 -382 0
-379 -383 0
-380 -384 0
-417 -421 0
-418 -422 0
-419 -423 0
-420 -424 0
-381 -385 0
-382 -386 0
-383 -387 0
-384 -388 0
-421 -425 0
-422 -426 0
-423 -427 0
-424 -428 0
-385 -389 0
-386 -390 0
-387 -391 0
-388 -392 0
-425 -429 0
-426 -430 0
-427 -431 0
-428 -432 0
-389 -393 0
-390 -394 0
-391 -395 0
-392 -396 0
-429 -433 0
-430 -434 0
-431 -435 0
-432 -436 0
-357 -397 0
-358 -398 0
-359 -399 0
-360 -400 0
-433 -393 0
-434 -394 0
-435 -395 0
-436 -396 0
-397 -285 0
-398 -286 0
-399 -287 0
-400 -288 0
-433 -317 0
-434 -318 0
-435 -319 0
-436 -320 0
-433 -357 0
-434 -358 0
-435 -359 0
-436 -360 0
-433 -361 0
-434 -362 0
-435 -363 0
-436 -364 0
-433 -365 0
-434 -366 0
-435 -367 0
-436 -368 0
-433 -369 0
-434 -370 0
-435 -371 0
-436 -372 0
-433 -373 0
-434 -374 0
-435 -375 0
-436 -376 0
-433 -377 0
-434 -378 0
-435 -379 0
-436 -380 0
-433 -381 0
-434 -382 0
-435 -383 0
-436 -384 0
-433 -385 0
-434 -386 0
-435 -387 0
-436 -388 0
-433 -389 0
-434 -390 0
-435 -391 0
-436 -392 0
-357 -401 0
-358 -402 0
-359 -403 0
-360 -404 0
-357 -405 0
-358 -406 0
-359 -407 0
-360 -408 0
-357 -409 0
-358 -410 0
-359 -411 0
-360 -412 0
-357 -413 0
-358 -414 0
-359 -415 0
-360 -416 0
-357 -417 0
-358 -418 0
-359 -419 0
-360 -420 0
-437 -433 0
-438 -434 0
-439 -435 0
-440 -436 0
-437 -429 0
-438 -430 0
-439 -431 0
-440 -432 0
-437 -425 0
-438 -426 0
-439 -427 0
-440 -428 0
-437 -421 0
-438 -422 0
-439 -423 0
-440 -424 0
-437 -417 0
-438 -418 0
-439 -419 0
-440 -420 0
-437 -357 0
-438 -358 0
-439 -359 0
-440 -360 0
-462 441 0
-463 442 0
-464 443 0
-465 444 0
-466 445 0
-467 446 0
-468 447 0
-455 441 0
-455 -462 442 0
-455 -463 443 0
-455 -464 444 0
-455 -465 445 0
-455 -466 446 0
-455 -467 447 0
-455 -468 0
-456 442 0
-456 -462 443 0
-456 -463 444 0
-456 -464 445 0
-456 -465 446 0
-456 -466 447 0
-456 -467 0
-457 443 0
-457 -462 444 0
-457 -463 445 0
-457 -464 446 0
-457 -465 447 0
-457 -466 0
-458 444 0
-458 -462 445 0
-458 -463 446 0
-458 -464 447 0
-458 -465 0
-459 445 0
-459 -462 446 0
-459 -463 447 0
-459 -464 0
-460 446 0
-460 -462 447 0
-460 -463 0
-461 447 0
-461 -462 0
-476 448 0
-477 449 0
-478 450 0
-479 451 0
-480 452 0
-481 453 0
-482 454 0
-469 448 0
-469 -476 449 0
-469 -477 450 0
-469 -478 451 0
-469 -479 452 0
-469 -480 453 0
-469 -481 454 0
-469 -482 0
-470 449 0
-470 -476 450 0
-470 -477 451 0
-470 -478 452 0
-470 -479 453 0
-470 -480 454 0
-470 -481 0
-471 450 0
-471 -476 451 0
-471 -477 452 0
-471 -478 453 0
-471 -479 454 0
-471 -480 0
-472 451 0
-472 -476 452 0
-472 -477 453 0
-472 -478 454 0
-472 -479 0
-473 452 0
-473 -476 453 0
-473 -477 454 0
-473 -478 0
-474 453 0
-474 -476 454 0
-474 -477 0
-475 454 0
-475 -476 0
-490 455 0
-491 456 0
-492 457 0
-493 458 0
-494 459 0
-495 460 0
-496 461 0
-483 455 0
-483 -490 456 0
-483 -491 457 0
-483 -492 458 0
-483 -493 459 0
-483 -494 460 0
-483 -495 461 0
-483 -496 0
-484 456 0
-484 -490 457 0
-484 -491 458 0
-484 -492 459 0
-484 -493 460 0
-484 -494 461 0
-484 -495 0
-485 457 0
-485 -490 458 0
-485 -491 459 0
-485 -492 460 0
-485 -493 461 0
-485 -494 0
-486 458 0
-486 -490 459 0
-486 -491 460 0
-486 -492 461 0
-486 -493 0
-487 459 0
-487 -490 460 0
-487 -491 461 0
-487 -492 0
-488 460 0
-488 -490 461 0
-488 -491 0
-489 461 0
-489 -490 0
-504 462 0
-505 463 0
-506 464 0
-507 465 0
-508 466 0
-509 467 0
-510 468 0
-497 462 0
-497 -504 463 0
-497 -505 464 0
-497 -506 465 0
-497 -507 466 0
-497 -508 467 0
-497 -509 468 0
-497 -510 0
-498 463 0
-498 -504 464 0
-498 -505 465 0
-498 -506 466 0
-498 -507 467 0
-498 -508 468 0
-498 -509 0
-499 464 0
-499 -504 465 0
-499 -505 466 0
-499 -506 467 0
-499 -507 468 0
-499 -508 0
-500 465 0
-500 -504 466 0
-500 -505 467 0
-500 -506 468 0
-500 -507 0
-501 466 0
-501 -504 467 0
-501 -505 468 0
-501 -506 0
-502 467 0
-502 -504 468 0
-502 -505 0
-503 468 0
-503 -504 0
-518 469 0
-519 470 0
-520 471 0
-521 472 0
-522 473 0
-523 474 0
-524 475 0
-511 469 0
-511 -518 470 0
-511 -519 471 0
-511 -520 472 0
-511 -521 473 0
-511 -522 474 0
-511 -523 475 0
-511 -524 0
-512 470 0
-512 -518 471 0
-512 -519 472 0
-512 -520 473 0
-512 -521 474 0
-512 -522 475 0
-512 -523 0
-513 471 0
-513 -518 472 0
-513 -519 473 0
-513 -520 474 0
-513 -521 475 0
-513 -522 0
-514 472 0
-514 -518 473 0
-514 -519 474 0
-514 -520 475 0
-514 -521 0
-515 473 0
-515 -518 474 0
-515 -519 475 0
-515 -520 0
-516 474 0
-516 -518 475 0
-516 -519 0
-517 475 0
-517 -518 0
-532 476 0
-533 477 0
-534 478 0
-535 479 0
-536 480 0
-537 481 0
-538 482 0
-525 476 0
-525 -532 477 0
-525 -533 478 0
-525 -534 479 0
-525 -535 480 0
-525 -536 481 0
-525 -537 482 0
-525 -538 0
-526 477 0
-526 -532 478 0
-526 -533 479 0
-526 -534 480 0
-526 -535 481 0
-526 -536 482 0
-526 -537 0
-527 478 0
-527 -532 479 0
-527 -533 480 0
-527 -534 481 0
-527 -535 482 0
-527 -536 0
-528 479 0
-528 -532 480 0
-528 -533 481 0
-528 -534 482 0
-528 -535 0
-529 480 0
-529 -532 481 0
-529 -533 482 0
-529 -534 0
-530 481 0
-530 -532 482 0
-530 -533 0
-531 482 0
-531 -532 0
-546 483 0
-547 484 0
-548 485 0
-549 486 0
-550 487 0
-551 488 0
-552 489 0
-539 483 0
-539 -546 484 0
-539 -547 485 0
-539 -548 486 0
-539 -549 487 0
-539 -550 488 0
-539 -551 489 0
-539 -552 0
-540 484 0
-540 -546 485 0
-540 -547 486 0
-540 -548 487 0
-540 -549 488 0
-540 -550 489 0
-540 -551 0
-541 485 0
-541 -546 486 0
-541 -547 487 0
-541 -548 488 0
-541 -549 489 0
-541 -550 0
-542 486 0
-542 -546 487 0
-542 -547 488 0
-542 -548 489 0
-542 -549 0
-543 487 0
-543 -546 488 0
-543 -547 489 0
-543 -548 0
-544 488 0
-544 -546 489 0
-544 -547 0
-545 489 0
-545 -546 0
-560 490 0
-561 491 0
-562 492 0
-563 493 0
-564 494 0
-565 495 0
-566 496 0
-553 490 0
-553 -560 491 0
-553 -561 492 0
-553 -562 493 0
-553 -563 494 0
-553 -564 495 0
-553 -565 496 0
-553 -566 0
-554 491 0
-554 -560 492 0
-554 -561 493 0
-554 -562 494 0
-554 -563 495 0
-554 -564 496 0
-554 -565 0
-555 492 0
-555 -560 493 0
-555 -561 494 0
-555 -562 495 0
-555 -563 496 0
-555 -564 0
-556 493 0
-556 -560 494 0
-556 -561 495 0
-556 -562 496 0
-556 -563 0
-557 494 0
-557 -560 495 0
-557 -561 496 0
-557 -562 0
-558 495 0
-558 -560 496 0
-558 -561 0
-559 496 0
-559 -560 0
-574 497 0
-575 498 0
-576 499 0
-577 500 0
-578 501 0
-579 502 0
-580 503 0
-567 497 0
-567 -574 498 0
-567 -575 499 0
-567 -576 500 0
-567 -577 501 0
-567 -578 502 0
-567 -579 503 0
-567 -580 0
-568 498 0
-568 -574 499 0
-568 -575 500 0
-568 -576 501 0
-568 -577 502 0
-568 -578 503 0
-568 -579 0
-569 499 0
-569 -574 500 0
-569 -575 501 0
-569 -576 502 0
-569 -577 503 0
-569 -578 0
-570 500 0
-570 -574 501 0
-570 -575 502 0
-570 -576 503 0
-570 -577 0
-571 501 0
-571 -574 502 0
-571 -575 503 0
-571 -576 0
-572 502 0
-572 -574 503 0
-572 -575 0
-573 503 0
-573 -574 0
-588 504 0
-589 505 0
-590 506 0
-591 507 0
-592 508 0
-593 509 0
-594 510 0
-581 504 0
-581 -588 505 0
-581 -589 506 0
-581 -590 507 0
-581 -591 508 0
-581 -592 509 0
-581 -593 510 0
-581 -594 0
-582 505 0
-582 -588 506 0
-582 -589 507 0
-582 -590 508 0
-582 -591 509 0
-582 -592 510 0
-582 -593 0
-583 506 0
-583 -588 507 0
-583 -589 508 0
-583 -590 509 0
-583 -591 510 0
-583 -592 0
-584 507 0
-584 -588 508 0
-584 -589 509 0
-584 -590 510 0
-584 -591 0
-585 508 0
-585 -588 509 0
-585 -589 510 0
-585 -590 0
-586 509 0
-586 -588 510 0
-586 -589 0
-587 510 0
-587 -588 0
-602 511 0
-603 512 0
-604 513 0
-605 514 0
-606 515 0
-607 516 0
-608 517 0
-595 511 0
-595 -602 512 0
-595 -603 513 0
-595 -604 514 0
-595 -605 515 0
-595 -606 516 0
-595 -607 517 0
-595 -608 0
-596 512 0
-596 -602 513 0
-596 -603 514 0
-596 -604 515 0
-596 -605 516 0
-596 -606 517 0
-596 -607 0
-597 513 0
-597 -602 514 0
-597 -603 515 0
-597 -604 516 0
-597 -605 517 0
-597 -606 0
-598 514 0
-598 -602 515 0
-598 -603 516 0
-598 -604 517 0
-598 -605 0
-599 515 0
-599 -602 516 0
-599 -603 517 0
-599 -604 0
-600 516 0
-600 -602 517 0
-600 -603 0
-601 517 0
-601 -602 0
-616 518 0
-617 519 0
-618 520 0
-619 521 0
-620 522 0
-621 523 0
-609 518 0
-609 -616 519 0
-609 -617 520 0
-609 -618 521 0
-609 -619 522 0
-609 -620 523 0
-609 -621 524 0
-610 519 0
-610 -616 520 0
-610 -617 521 0
-610 -618 522 0
-610 -619 523 0
-610 -620 524 0
-610 -621 0
-611 520 0
-611 -616 521 0
-611 -617 522 0
-611 -618 523 0
-611 -619 524 0
-611 -620 0
-612 521 0
-612 -616 522 0
-612 -617 523 0
-612 -618 524 0
-612 -619 0
-613 522 0
-613 -616 523 0
-613 -617 524 0
-613 -618 0
-614 523 0
-614 -616 524 0
-614 -617 0
-615 524 0
-615 -616 0
-626 525 0
-627 526 0
-628 527 0
-629 528 0
-622 525 0
-622 -626 526 0
-622 -627 527 0
-622 -628 528 0
-622 -629 529 0
-623 526 0
-623 -626 527 0
-623 -627 528 0
-623 -628 529 0
-623 -629 530 0
-624 527 0
-624 -626 528 0
-624 -627 529 0
-624 -628 530 0
-624 -629 531 0
-625 528 0
-625 -626 529 0
-625 -627 530 0
-625 -628 531 0
-625 -629 0
-634 532 0
-635 533 0
-636 534 0
-637 535 0
-630 532 0
-630 -634 533 0
-630 -635 534 0
-630 -636 535 0
-630 -637 536 0
-631 533 0
-631 -634 534 0
-631 -635 535 0
-631 -636 536 0
-631 -637 537 0
-632 534 0
-632 -634 535 0
-632 -635 536 0
-632 -636 537 0
-632 -637 538 0
-633 535 0
-633 -634 536 0
-633 -635 537 0
-633 -636 538 0
-633 -637 0
-642 539 0
-643 540 0
-644 541 0
-645 542 0
-638 539 0
-638 -642 540 0
-638 -643 541 0
-638 -644 542 0
-638 -645 543 0
-639 540 0
-639 -642 541 0
-639 -643 542 0
-639 -644 543 0
-639 -645 544 0
-640 541 0
-640 -642 542 0
-640 -643 543 0
-640 -644 544 0
-640 -645 545 0
-641 542 0
-641 -642 543 0
-641 -643 544 0
-641 -644 545 0
-641 -645 0
-650 546 0
-651 547 0
-652 548 0
-653 549 0
-646 546 0
-646 -650 547 0
-646 -651 548 0
-646 -652 549 0
-646 -653 550 0
-647 547 0
-647 -650 548 0
-647 -651 549 0
-647 -652 550 0
-647 -653 551 0
-648 548 0
-648 -650 549 0
-648 -651 550 0
-648 -652 551 0
-648 -653 552 0
-649 549 0
-649 -650 550 0
-649 -651 551 0
-649 -652 552 0
-649 -653 0
-658 553 0
-659 554 0
-660 555 0
-661 556 0
-654 553 0
-654 -658 554 0
-654 -659 555 0
-654 -660 556 0
-654 -661 557 0
-655 554 0
-655 -658 555 0
-655 -659 556 0
-655 -660 557 0
-655 -661 558 0
-656 555 0
-656 -658 556 0
-656 -659 557 0
-656 -660 558 0
-656 -661 559 0
-657 556 0
-657 -658 557 0
-657 -659 558 0
-657 -660 559 0
-657 -661 0
-666 560 0
-667 561 0
-668 562 0
-669 563 0
-662 560 0
-662 -666 561 0
-662 -667 562 0
-662 -668 563 0
-662 -669 564 0
-663 561 0
-663 -666 562 0
-663 -667 563 0
-663 -668 564 0
-663 -669 565 0
-664 562 0
-664 -666 563 0
-664 -667 564 0
-664 -668 565 0
-664 -669 566 0
-665 563 0
-665 -666 564 0
-665 -667 565 0
-665 -668 566 0
-665 -669 0
-674 567 0
-675 568 0
-676 569 0
-677 570 0
-670 567 0
-670 -674 568 0
-670 -675 569 0
-670 -676 570 0
-670 -677 571 0
-671 568 0
-671 -674 569 0
-671 -675 570 0
-671 -676 571 0
-671 -677 572 0
-672 569 0
-672 -674 570 0
-672 -675 571 0
-672 -676 572 0
-672 -677 573 0
-673 570 0
-673 -674 571 0
-673 -675 572 0
-673 -676 573 0
-673 -677 0
-682 574 0
-683 575 0
-684 576 0
-685 577 0
-678 574 0
-678 -682 575 0
-678 -683 576 0
-678 -684 577 0
-678 -685 578 0
-679 575 0
-679 -682 576 0
-679 -683 577 0
-679 -684 578 0
-679 -685 579 0
-680 576 0
-680 -682 577 0
-680 -683 578 0
-680 -684 579 0
-680 -685 580 0
-681 577 0
-681 -682 578 0
-681 -683 579 0
-681 -684 580 0
-681 -685 0
-690 581 0
-691 582 0
-692 583 0
-693 584 0
-686 581 0
-686 -690 582 0
-686 -691 583 0
-686 -692 584 0
-686 -693 585 0
-687 582 0
-687 -690 583 0
-687 -691 584 0
-687 -692 585 0
-687 -693 586 0
-688 583 0
-688 -690 584 0
-688 -691 585 0
-688 -692 586 0
-688 -693 587 0
-689 584 0
-689 -690 585 0
-689 -691 586 0
-689 -692 587 0
-689 -693 0
-698 588 0
-699 589 0
-700 590 0
-701 591 0
-694 588 0
-694 -698 589 0
-694 -699 590 0
-694 -700 591 0
-694 -701 592 0
-695 589 0
-695 -698 590 0
-695 -699 591 0
-695 -700 592 0
-695 -701 593 0
-696 590 0
-696 -698 591 0
-696 -699 592 0
-696 -700 593 0
-696 -701 594 0
-697 591 0
-697 -698 592 0
-697 -699 593 0
-697 -700 594 0
-697 -701 0
-706 595 0
-707 596 0
-708 597 0
-709 598 0
-702 595 0
-702 -706 596 0
-702 -707 597 0
-702 -708 598 0
-702 -709 599 0
-703 596 0
-703 -706 597 0
-703 -707 598 0
-703 -708 599 0
-703 -709 600 0
-704 597 0
-704 -706 598 0
-704 -707 599 0
-704 -708 600 0
-704 -709 601 0
-705 598 0
-705 -706 599 0
-705 -707 600 0
-705 -708 601 0
-705 -709 0
-714 602 0
-715 603 0
-716 604 0
-717 605 0
-710 602 0
-710 -714 603 0
-710 -715 604 0
-710 -716 605 0
-710 -717 606 0
-711 603 0
-711 -714 604 0
-711 -715 605 0
-711 -716 606 0
-711 -717 607 0
-712 604 0
-712 -714 605 0
-712 -715 606 0
-712 -716 607 0
-712 -717 608 0
-713 605 0
-713 -714 606 0
-713 -715 607 0
-713 -716 608 0
-713 -717 0
-722 609 0
-723 610 0
-724 611 0
-725 612 0
-718 609 0
-718 -722 610 0
-718 -723 611 0
-718 -724 612 0
-718 -725 613 0
-719 610 0
-719 -722 611 0
-719 -723 612 0
-719 -724 613 0
-719 -725 614 0
-720 611 0
-720 -722 612 0
-720 -723 613 0
-720 -724 614 0
-720 -725 615 0
-721 612 0
-721 -722 613 0
-721 -723 614 0
-721 -724 615 0
-721 -725 0
-730 616 0
-731 617 0
-726 616 0
-726 -730 617 0
-726 -731 618 0
-727 617 0
-727 -730 618 0
-727 -731 619 0
-728 618 0
-728 -730 619 0
-728 -731 620 0
-729 619 0
-729 -730 620 0
-729 -731 621 0
-734 622 0
-735 623 0
-732 622 0
-732 -734 623 0
-732 -735 624 0
-733 623 0
-733 -734 624 0
-733 -735 625 0
-738 626 0
-739 627 0
-736 626 0
-736 -738 627 0
-736 -739 628 0
-737 627 0
-737 -738 628 0
-737 -739 629 0
-742 630 0
-743 631 0
-740 630 0
-740 -742 631 0
-740 -743 632 0
-741 631 0
-741 -742 632 0
-741 -743 633 0
-746 634 0
-747 635 0
-744 634 0
-744 -746 635 0
-744 -747 636 0
-745 635 0
-745 -746 636 0
-745 -747 637 0
-750 638 0
-751 639 0
-748 638 0
-748 -750 639 0
-748 -751 640 0
-749 639 0
-749 -750 640 0
-749 -751 641 0
-754 642 0
-755 643 0
-752 642 0
-752 -754 643 0
-752 -755 644 0
-753 643 0
-753 -754 644 0
-753 -755 645 0
-758 646 0
-759 647 0
-756 646 0
-756 -758 647 0
-756 -759 648 0
-757 647 0
-757 -758 648 0
-757 -759 649 0
-762 650 0
-763 651 0
-760 650 0
-760 -762 651 0
-760 -763 652 0
-761 651 0
-761 -762 652 0
-761 -763 653 0
-766 654 0
-767 655 0
-764 654 0
-764 -766 655 0
-764 -767 656 0
-765 655 0
-765 -766 656 0
-765 -767 657 0
-770 658 0
-771 659 0
-768 658 0
-768 -770 659 0
-768 -771 660 0
-769 659 0
-769 -770 660 0
-769 -771 661 0
-774 662 0
-775 663 0
-772 662 0
-772 -774 663 0
-772 -775 664 0
-773 663 0
-773 -774 664 0
-773 -775 665 0
-778 666 0
-779 667 0
-776 666 0
-776 -778 667 0
-776 -779 668 0
-777 667 0
-777 -778 668 0
-777 -779 669 0
-782 670 0
-783 671 0
-780 670 0
-780 -782 671 0
-780 -783 672 0
-781 671 0
-781 -782 672 0
-781 -783 673 0
-786 674 0
-787 675 0
-784 674 0
-784 -786 675 0
-784 -787 676 0
-785 675 0
-785 -786 676 0
-785 -787 677 0
-790 678 0
-791 679 0
-788 678 0
-788 -790 679 0
-788 -791 680 0
-789 679 0
-789 -790 680 0
-789 -791 681 0
-794 682 0
-795 683 0
-792 682 0
-792 -794 683 0
-792 -795 684 0
-793 683 0
-793 -794 684 0
-793 -795 685 0
-798 686 0
-799 687 0
-796 686 0
-796 -798 687 0
-796 -799 688 0
-797 687 0
-797 -798 688 0
-797 -799 689 0
-802 690 0
-803 691 0
-800 690 0
-800 -802 691 0
-800 -803 692 0
-801 691 0
-801 -802 692 0
-801 -803 693 0
-806 694 0
-807 695 0
-804 694 0
-804 -806 695 0
-804 -807 696 0
-805 695 0
-805 -806 696 0
-805 -807 697 0
-810 698 0
-811 699 0
-808 698 0
-808 -810 699 0
-808 -811 700 0
-809 699 0
-809 -810 700 0
-809 -811 701 0
-814 702 0
-815 703 0
-812 702 0
-812 -814 703 0
-812 -815 704 0
-813 703 0
-813 -814 704 0
-813 -815 705 0
-818 706 0
-819 707 0
-816 706 0
-816 -818 707 0
-816 -819 708 0
-817 707 0
-817 -818 708 0
-817 -819 709 0
-822 710 0
-823 711 0
-820 710 0
-820 -822 711 0
-820 -823 712 0
-821 711 0
-821 -822 712 0
-821 -823 713 0
-826 714 0
-827 715 0
-824 714 0
-824 -826 715 0
-824 -827 716 0
-825 715 0
-825 -826 716 0
-825 -827 717 0
-830 718 0
-831 719 0
-828 718 0
-828 -830 719 0
-828 -831 720 0
-829 719 0
-829 -830 720 0
-829 -831 721 0
-834 722 0
-835 723 0
-832 722 0
-832 -834 723 0
-832 -835 724 0
-833 723 0
-833 -834 724 0
-833 -835 725 0
-838 726 0
-839 727 0
-836 726 0
-836 -838 727 0
-836 -839 728 0
-837 727 0
-837 -838 728 0
-837 -839 729 0
-5 730 0
-1 730 0
-1 -5 731 0
-13 732 0
-9 732 0
-9 -13 733 0
-21 734 0
-17 734 0
-17 -21 735 0
-29 736 0
-25 736 0
-25 -29 737 0
-37 738 0
-33 738 0
-33 -37 739 0
-45 740 0
-41 740 0
-41 -45 741 0
-53 742 0
-49 742 0
-49 -53 743 0
-61 744 0
-57 744 0
-57 -61 745 0
-69 746 0
-65 746 0
-65 -69 747 0
-77 748 0
-73 748 0
-73 -77 749 0
-85 750 0
-81 750 0
-81 -85 751 0
-93 752 0
-89 752 0
-89 -93 753 0
-101 754 0
-97 754 0
-97 -101 755 0
-109 756 0
-105 756 0
-105 -109 757 0
-117 758 0
-113 758 0
-113 -117 759 0
-125 760 0
-121 760 0
-121 -125 761 0
-133 762 0
-129 762 0
-129 -133 763 0
-141 764 0
-137 764 0
-137 -141 765 0
-149 766 0
-145 766 0
-145 -149 767 0
-157 768 0
-153 768 0
-153 -157 769 0
-165 770 0
-161 770 0
-161 -165 771 0
-173 772 0
-169 772 0
-169 -173 773 0
-181 774 0
-177 774 0
-177 -181 775 0
-189 776 0
-185 776 0
-185 -189 777 0
-197 778 0
-193 778 0
-193 -197 779 0
-205 780 0
-201 780 0
-201 -205 781 0
-213 782 0
-209 782 0
-209 -213 783 0
-221 784 0
-217 784 0
-217 -221 785 0
-229 786 0
-225 786 0
-225 -229 787 0
-237 788 0
-233 788 0
-233 -237 789 0
-245 790 0
-241 790 0
-241 -245 791 0
-253 792 0
-249 792 0
-249 -253 793 0
-261 794 0
-257 794 0
-257 -261 795 0
-269 796 0
-265 796 0
-265 -269 797 0
-277 798 0
-273 798 0
-273 -277 799 0
-285 800 0
-281 800 0
-281 -285 801 0
-293 802 0
-289 802 0
-289 -293 803 0
-301 804 0
-297 804 0
-297 -301 805 0
-309 806 0
-305 806 0
-305 -309 807 0
-317 808 0
-313 808 0
-313 -317 809 0
-325 810 0
-321 810 0
-321 -325 811 0
-333 812 0
-329 812 0
-329 -333 813 0
-341 814 0
-337 814 0
-337 -341 815 0
-349 816 0
-345 816 0
-345 -349 817 0
-357 818 0
-353 818 0
-353 -357 819 0
-365 820 0
-361 820 0
-361 -365 821 0
-373 822 0
-369 822 0
-369 -373 823 0
-381 824 0
-377 824 0
-377 -381 825 0
-389 826 0
-385 826 0
-385 -389 827 0
-397 828 0
-393 828 0
-393 -397 829 0
-405 830 0
-401 830 0
-401 -405 831 0
-413 832 0
-409 832 0
-409 -413 833 0
-421 834 0
-417 834 0
-417 -421 835 0
-429 836 0
-425 836 0
-425 -429 837 0
-437 838 0
-433 838 0
-433 -437 839 0
-441 -454 0
-442 -453 0
-443 -452 0
-444 -451 0
-445 -450 0
-446 -449 0
-447 -448 0